(set-logic ALL)
(declare-const BAV1 Bool)
(declare-const BAV2 Bool)
(declare-const BAV3 Bool)
(declare-const BAV4 Bool)
(declare-const BAV5 Bool)
(declare-const BAV6 Bool)
(declare-const BAV7 Bool)
(declare-const BAV8 Bool)
(declare-const BAV9 Bool)
(declare-const GEN37 Int)
(declare-const GEN36 String)
(declare-const GEN35 Int)
(declare-const GEN34 Int)
(declare-const GEN33 Int)
(declare-const GEN32 String)
(declare-const GEN31 Int)
(declare-const GEN30 Int)
(declare-const GEN29 String)
(declare-const GEN28 String)
(declare-const GEN27 Int)
(declare-const GEN26 Int)
(declare-const GEN25 String)
(declare-const GEN24 Int)
(declare-const GEN23 Int)
(declare-const GEN22 Int)
(declare-const GEN21 Int)
(declare-const GEN20 String)
(declare-const GEN19 Int)
(declare-const GEN18 String)
(declare-const GEN17 Int)
(declare-const GEN16 String)
(declare-const GEN15 Int)
(declare-const GEN14 String)
(declare-const GEN13 Int)
(declare-const GEN12 String)
(declare-const GEN11 Int)
(declare-const GEN10 Int)
(declare-const GEN9 String)
(declare-const GEN8 Int)
(declare-const GEN7 String)
(declare-const GEN6 Int)
(declare-const GEN5 String)
(declare-const GEN4 Int)
(declare-const GEN3 String)
(declare-const GEN2 Int)
(declare-const GEN1 String)
(set-option :strings-exp true)
(set-option :strings-fmf true)
(declare-fun url () String)
(assert (and (and (and (and (= (str.len (str.substr (str.substr url (str.indexof url GEN1 GEN2) (- (str.len url) (str.indexof url GEN3 GEN4))) (+ (str.indexof (str.substr url (str.indexof url GEN5 GEN6) (- (str.len url) (str.indexof url GEN7 GEN8))) GEN9 GEN10) GEN11) (- (str.len (str.substr url (str.indexof url GEN12 GEN13) (- (str.len url) (str.indexof url GEN14 GEN15)))) (+ (str.indexof (str.substr url (str.indexof url GEN16 GEN17) (- (str.len url) (str.indexof url GEN18 GEN19))) GEN20 GEN21) GEN22)))) GEN23) (not (= (str.substr url GEN24 (- (str.indexof url GEN25 GEN26) GEN27)) GEN28))) (> (str.indexof url GEN29 GEN30) GEN31)) (>= (- (str.indexof url GEN32 GEN33) GEN34) GEN35)) (>= (str.indexof url GEN36 GEN37) 0)))
(assert (= BAV1 (and (and (and (and (= (str.len (str.substr (str.substr url (str.indexof url GEN1 GEN2) (- (str.len url) (str.indexof url GEN3 GEN4))) (+ (str.indexof (str.substr url (str.indexof url GEN5 GEN6) (- (str.len url) (str.indexof url GEN7 GEN8))) GEN9 GEN10) GEN11) (- (str.len (str.substr url (str.indexof url GEN12 GEN13) (- (str.len url) (str.indexof url GEN14 GEN15)))) (+ (str.indexof (str.substr url (str.indexof url GEN16 GEN17) (- (str.len url) (str.indexof url GEN18 GEN19))) GEN20 GEN21) GEN22)))) GEN23) (not (= (str.substr url GEN24 (- (str.indexof url GEN25 GEN26) GEN27)) GEN28))) (> (str.indexof url GEN29 GEN30) GEN31)) (>= (- (str.indexof url GEN32 GEN33) GEN34) GEN35)) (>= (str.indexof url GEN36 GEN37) 0))))
(assert (= BAV2 (and (and (and (= (str.len (str.substr (str.substr url (str.indexof url GEN1 GEN2) (- (str.len url) (str.indexof url GEN3 GEN4))) (+ (str.indexof (str.substr url (str.indexof url GEN5 GEN6) (- (str.len url) (str.indexof url GEN7 GEN8))) GEN9 GEN10) GEN11) (- (str.len (str.substr url (str.indexof url GEN12 GEN13) (- (str.len url) (str.indexof url GEN14 GEN15)))) (+ (str.indexof (str.substr url (str.indexof url GEN16 GEN17) (- (str.len url) (str.indexof url GEN18 GEN19))) GEN20 GEN21) GEN22)))) GEN23) (not (= (str.substr url GEN24 (- (str.indexof url GEN25 GEN26) GEN27)) GEN28))) (> (str.indexof url GEN29 GEN30) GEN31)) (>= (- (str.indexof url GEN32 GEN33) GEN34) GEN35))))
(assert (= BAV3 (and (and (= (str.len (str.substr (str.substr url (str.indexof url GEN1 GEN2) (- (str.len url) (str.indexof url GEN3 GEN4))) (+ (str.indexof (str.substr url (str.indexof url GEN5 GEN6) (- (str.len url) (str.indexof url GEN7 GEN8))) GEN9 GEN10) GEN11) (- (str.len (str.substr url (str.indexof url GEN12 GEN13) (- (str.len url) (str.indexof url GEN14 GEN15)))) (+ (str.indexof (str.substr url (str.indexof url GEN16 GEN17) (- (str.len url) (str.indexof url GEN18 GEN19))) GEN20 GEN21) GEN22)))) GEN23) (not (= (str.substr url GEN24 (- (str.indexof url GEN25 GEN26) GEN27)) GEN28))) (> (str.indexof url GEN29 GEN30) GEN31))))
(assert (= BAV4 (and (= (str.len (str.substr (str.substr url (str.indexof url GEN1 GEN2) (- (str.len url) (str.indexof url GEN3 GEN4))) (+ (str.indexof (str.substr url (str.indexof url GEN5 GEN6) (- (str.len url) (str.indexof url GEN7 GEN8))) GEN9 GEN10) GEN11) (- (str.len (str.substr url (str.indexof url GEN12 GEN13) (- (str.len url) (str.indexof url GEN14 GEN15)))) (+ (str.indexof (str.substr url (str.indexof url GEN16 GEN17) (- (str.len url) (str.indexof url GEN18 GEN19))) GEN20 GEN21) GEN22)))) GEN23) (not (= (str.substr url GEN24 (- (str.indexof url GEN25 GEN26) GEN27)) GEN28)))))
(assert (= BAV5 (= (str.len (str.substr (str.substr url (str.indexof url GEN1 GEN2) (- (str.len url) (str.indexof url GEN3 GEN4))) (+ (str.indexof (str.substr url (str.indexof url GEN5 GEN6) (- (str.len url) (str.indexof url GEN7 GEN8))) GEN9 GEN10) GEN11) (- (str.len (str.substr url (str.indexof url GEN12 GEN13) (- (str.len url) (str.indexof url GEN14 GEN15)))) (+ (str.indexof (str.substr url (str.indexof url GEN16 GEN17) (- (str.len url) (str.indexof url GEN18 GEN19))) GEN20 GEN21) GEN22)))) GEN23)))
(assert (= BAV6 (= (str.substr url GEN24 (- (str.indexof url GEN25 GEN26) GEN27)) GEN28)))
(assert (= BAV7 (> (str.indexof url GEN29 GEN30) GEN31)))
(assert (= BAV8 (>= (- (str.indexof url GEN32 GEN33) GEN34) GEN35)))
(assert (= BAV9 (>= (str.indexof url GEN36 GEN37) 0)))
(check-sat)
(get-model)